% demand
num_movements = 31;
loading_factor = [850, 1350, 2000, 1000, 1950, 1100, 1100, 1600, 1350, 1250, 850, 1450, 1150, 1200, 1750, 1600, 1700, 900, 1900, 1050, 1400, 1750, 1250, 800, 900, 1850, 1700, 1800, 950, 1500, 1300];
pickup_time = [0, 0, 0, 0, 0, 1, 2, 2, 2, 2, 3, 3, 3, 3, 3, 3, 3, 3, 4, 4, 4, 4, 4, 4, 5, 5, 5, 5, 5, 5, 7];
delivery_time = [2, 2, 2, 2, 3, 2, 3, 3, 3, 3, 4, 4, 4, 4, 4, 4, 4, 4, 5, 7, 5, 5, 8, 5, 7, 7, 7, 7, 8, 8, 8];

% transporter definition
total_capacity = 11000;
num_decks = 4;
capacity = [3000, 3000, 1000, 4000];

% ways out of decks
num_ways_out = 2;
paths_out = array3d(decks, ways_out, decks, [
% ways out of deck d1
2, 4, 0, 0, 3, 4, 0, 0, 

% ways out of deck d2
4, 0, 0, 0, 0, 0, 0, 0,	

% ways out of deck d3
4, 0, 0, 0, 0, 0, 0, 0,	

% ways out of deck d4
0, 0, 0, 0,	0, 0, 0, 0,	

]);

